
--- Job model.gms Start 04/19/12 10:58:48 WEX-WEI 23.8.1 x86_64/MS Windows     
GAMS Rev 238  Copyright (C) 1987-2012 GAMS Development. All rights reserved
Licensee: EF&M Group                                     G111220:2011CP-WIN
          National Renewable Energy Laboratory (NREL)                DC3485
--- Starting compilation
--- model.gms(12) 2 Mb
--- .sets.gms(390) 3 Mb
--- model.gms(16) 3 Mb
--- .data.gms(41) 3 Mb
--- GDXin=C:\Documents and Settings\psulliva\My Documents\EMA_2012\data\output\model_data.gdx
--- .data.gms(456) 4 Mb
--- model.gms(388) 4 Mb
--- .findings.gms(527) 4 Mb
--- model.gms(390) 4 Mb
--- .report.gms(435) 4 Mb
--- model.gms(407) 4 Mb
--- Starting execution: elapsed 0:00:00.125
--- model.gms(1221) 61 Mb
--- Generating QCP model elec
--- model.gms(1222) 264 Mb
---   302,486 rows  327,893 columns  1,837,165 non-zeroes
---   782 nl-code  130 nl-non-zeroes
--- model.gms(1222) 262 Mb
--- Executing CPLEX: elapsed 0:00:04.125

IBM ILOG CPLEX   Mar 17, 2012 23.8.1 WEX 31442.31924 WEI x86_64/MS Windows
--- GAMS/Cplex licensed for continuous problems.
Cplex 12.4.0.0

Reading data...
Starting Cplex...
Tried aggregator 1 time.
QP Presolve eliminated 124534 rows and 138542 columns.
Aggregator did 18349 substitutions.
Reduced QP has 159603 rows, 171022 columns, and 996462 nonzeros.
Reduced QP objective Q matrix has 130 nonzeros.
Presolve time =    0.83 sec.
Parallel mode: none, using 1 thread for barrier
Number of nonzeros in lower triangle of A*A' = 7827876
Using Nested Dissection ordering
Total time for automatic ordering = 3.66 sec.
Summary statistics for Cholesky factor:
  Rows in Factor            = 159603
  Integer space required    = 688497
  Total non-zeros in factor = 22191154
  Total FP ops to factor    = 4564542652
 Itn      Primal Obj        Dual Obj  Prim Inf Upper Inf  Dual Inf          
   0  9.5041700e+009 -5.0797357e+007 1.87e+008 1.59e+007 8.74e+006
   1  8.0078408e+009 -5.1401360e+007 1.55e+008 1.32e+007 7.23e+006
   2  6.7317489e+009 -5.4244550e+007 1.27e+008 1.08e+007 5.95e+006
   3  5.8652103e+009 -5.7965141e+007 1.10e+008 9.36e+006 5.13e+006
   4  4.6476552e+009 -6.4621886e+007 8.45e+007 7.19e+006 3.94e+006
   5  2.9050807e+009 -6.1894205e+007 5.14e+007 4.37e+006 2.40e+006
   6  1.5520259e+009 -5.8915664e+007 2.56e+007 2.18e+006 1.19e+006
   7  7.8721486e+008 -5.5300295e+007 1.17e+007 9.92e+005 5.44e+005
   8  2.6383938e+008 -4.6995015e+007 3.57e+006 3.04e+005 1.66e+005
   9  1.1648744e+008 -4.3470853e+007 1.47e+006 1.25e+005 6.86e+004
  10  6.7099612e+007 -4.1736882e+007 8.19e+005 6.97e+004 3.82e+004
  11  2.1857181e+007 -3.9521558e+007 2.76e+005 2.35e+004 1.29e+004
  12  1.1163105e+007 -3.8630248e+007 1.66e+005 1.41e+004 7.73e+003
  13 -2.2936073e+006 -3.3658087e+007 6.47e+004 5.50e+003 3.02e+003
  14 -9.4296706e+006 -2.9165520e+007 2.38e+004 2.02e+003 1.11e+003
  15 -1.2681328e+007 -2.6316231e+007 1.01e+004 8.56e+002 4.69e+002
  16 -1.4631585e+007 -2.4779142e+007 2.83e+003 2.41e+002 1.32e+002
  17 -1.5779555e+007 -2.3122845e+007 1.37e+003 1.16e+002 6.38e+001
  18 -1.6185635e+007 -2.2656845e+007 8.74e+002 7.44e+001 4.08e+001
  19 -1.6863883e+007 -2.1710937e+007 3.49e+002 2.97e+001 1.63e+001
  20 -1.7221243e+007 -2.1263947e+007 1.28e+002 1.09e+001 5.97e+000
  21 -1.7611568e+007 -2.0618357e+007 5.87e+001 4.99e+000 2.74e+000
  22 -1.7862753e+007 -2.0234824e+007 2.54e+001 2.16e+000 1.19e+000
  23 -1.7968875e+007 -2.0071355e+007 1.55e+001 1.32e+000 7.23e-001
  24 -1.8100576e+007 -1.9866877e+007 6.23e+000 5.30e-001 2.91e-001
  25 -1.8115936e+007 -1.9837146e+007 4.30e+000 3.66e-001 2.01e-001
  26 -1.8189035e+007 -1.9725132e+007 1.04e+000 8.86e-002 4.86e-002
  27 -1.8362139e+007 -1.9472790e+007 3.92e-001 3.34e-002 1.83e-002
  28 -1.8373245e+007 -1.9450745e+007 2.51e-001 2.13e-002 1.17e-002
  29 -1.8395666e+007 -1.9415896e+007 1.51e-001 1.29e-002 7.05e-003
  30 -1.8480512e+007 -1.9297059e+007 3.74e-002 3.18e-003 1.74e-003
  31 -1.8487900e+007 -1.9280115e+007 2.14e-002 1.82e-003 9.99e-004
  32 -1.8564127e+007 -1.9185496e+007 9.46e-003 8.06e-004 4.42e-004
  33 -1.8598556e+007 -1.9144092e+007 5.88e-003 5.00e-004 2.74e-004
  34 -1.8639633e+007 -1.9096719e+007 2.57e-003 2.19e-004 1.20e-004
  35 -1.8650867e+007 -1.9085120e+007 2.09e-003 1.77e-004 9.75e-005
  36 -1.8684554e+007 -1.9050966e+007 1.45e-003 1.23e-004 6.77e-005
  37 -1.8689620e+007 -1.9040804e+007 6.31e-004 5.37e-005 2.96e-005
  38 -1.8738740e+007 -1.8993065e+007 1.58e-004 1.34e-005 7.59e-006
  39 -1.8761201e+007 -1.8973827e+007 1.32e-004 1.12e-005 6.37e-006
  40 -1.8783683e+007 -1.8955186e+007 1.07e-004 9.08e-006 5.18e-006
  41 -1.8803154e+007 -1.8939496e+007 8.49e-005 7.23e-006 4.13e-006
  42 -1.8819529e+007 -1.8926734e+007 6.69e-005 5.69e-006 3.26e-006
  43 -1.8828965e+007 -1.8919548e+007 5.65e-005 4.81e-006 2.76e-006
  44 -1.8840020e+007 -1.8911332e+007 4.46e-005 3.79e-006 2.17e-006
  45 -1.8847635e+007 -1.8905987e+007 3.65e-005 3.10e-006 1.79e-006
  46 -1.8854700e+007 -1.8901126e+007 2.91e-005 2.47e-006 1.43e-006
  47 -1.8860677e+007 -1.8897175e+007 2.28e-005 1.94e-006 1.13e-006
  48 -1.8862806e+007 -1.8895799e+007 2.07e-005 1.76e-006 1.02e-006
  49 -1.8866130e+007 -1.8893650e+007 1.73e-005 1.47e-006 8.55e-007
  50 -1.8870492e+007 -1.8890890e+007 1.28e-005 1.09e-006 6.37e-007
  51 -1.8874418e+007 -1.8888539e+007 8.88e-006 7.56e-007 4.43e-007
  52 -1.8875606e+007 -1.8887845e+007 7.70e-006 6.56e-007 3.88e-007
  53 -1.8876990e+007 -1.8887064e+007 6.35e-006 5.40e-007 3.20e-007
  54 -1.8878797e+007 -1.8886076e+007 4.59e-006 3.91e-007 2.33e-007
  55 -1.8880250e+007 -1.8885284e+007 3.18e-006 2.70e-007 1.64e-007
  56 -1.8881597e+007 -1.8884579e+007 1.89e-006 1.60e-007 9.99e-008
  57 -1.8881848e+007 -1.8884457e+007 1.65e-006 1.40e-007 8.92e-008
  58 -1.8882105e+007 -1.8884334e+007 1.41e-006 1.20e-007 7.67e-008
  59 -1.8882503e+007 -1.8884144e+007 1.04e-006 8.83e-008 5.87e-008
  60 -1.8882895e+007 -1.8883958e+007 7.41e-007 5.73e-008 4.06e-008
  61 -1.8883048e+007 -1.8883887e+007 5.87e-007 4.52e-008 3.45e-008
  62 -1.8883189e+007 -1.8883824e+007 4.46e-007 3.43e-008 2.80e-008
  63 -1.8883356e+007 -1.8883748e+007 2.78e-007 2.11e-008 2.09e-008
  64 -1.8883480e+007 -1.8883692e+007 1.54e-007 1.14e-008 1.54e-008
  65 -1.8883545e+007 -1.8883664e+007 8.94e-008 6.44e-009 1.32e-008
  66 -1.8883585e+007 -1.8883647e+007 5.36e-008 3.37e-009 1.21e-008
  67 -1.8883614e+007 -1.8883635e+007 3.54e-008 1.15e-009 1.20e-008
  68 -1.8883627e+007 -1.8883629e+007 4.20e-008 1.12e-010 1.36e-008
  69 -1.8883627e+007 -1.8883629e+007 3.23e-008 6.82e-011 1.20e-008
  70 -1.8883628e+007 -1.8883628e+007 4.30e-008 3.63e-012 1.46e-008

Total time on 1 threads =  107.28 sec.
QP status(1): optimal

Optimal solution found.
Objective :   -18883628.321241

--- Restarting execution
--- model.gms(1222) 80 Mb
--- Reading solution for model elec
--- model.gms(1222) 112 Mb
--- Executing after solve: elapsed 0:02:00.654
--- model.gms(2207) 169 Mb
*** Status: Normal completion
--- Job model.gms Stop 04/19/12 11:00:52 elapsed 0:02:03.904
